************************************************************************
file with basedata            : md379_.bas
initial value random generator: 1821014823
************************************************************************
projects                      :  1
jobs (incl. supersource/sink ):  22
horizon                       :  155
RESOURCES
  - renewable                 :  2   R
  - nonrenewable              :  2   N
  - doubly constrained        :  0   D
************************************************************************
PROJECT INFORMATION:
pronr.  #jobs rel.date duedate tardcost  MPM-Time
    1     20      0       25        1       25
************************************************************************
PRECEDENCE RELATIONS:
jobnr.    #modes  #successors   successors
   1        1          3           2   3   4
   2        3          3           8  10  17
   3        3          3           5   6   7
   4        3          3          10  14  15
   5        3          2          10  16
   6        3          3          12  19  20
   7        3          3           9  13  16
   8        3          3          14  18  21
   9        3          1          11
  10        3          1          18
  11        3          2          12  20
  12        3          1          21
  13        3          2          14  15
  14        3          1          19
  15        3          1          17
  16        3          3          17  19  21
  17        3          1          18
  18        3          1          20
  19        3          1          22
  20        3          1          22
  21        3          1          22
  22        1          0        
************************************************************************
REQUESTS/DURATIONS:
jobnr. mode duration  R 1  R 2  N 1  N 2
------------------------------------------------------------------------
  1      1     0       0    0    0    0
  2      1     3       0   10    9    9
         2     3       3    0    7    9
         3     5       0   10    5    4
  3      1     7       0    6    6    9
         2     8       9    0    4    7
         3     9       0    5    1    3
  4      1     3       0    8    2    5
         2     9       0    6    2    3
         3     9       7    0    1    4
  5      1     3       0    3    9    5
         2     4       0    3    7    5
         3     9       0    1    3    4
  6      1     4       0    6    8    7
         2     7       1    0    6    4
         3     8       0    6    6    4
  7      1     2       0    8    2    7
         2     3       0    5    2    5
         3     4       2    0    2    4
  8      1     1       0    3    7    8
         2     4       6    0    6    4
         3     9       6    0    5    3
  9      1     2       0    5    3    8
         2     2       6    0    3    9
         3     8       0    5    3    6
 10      1     6       8    0    7    2
         2     6       0    5    9    2
         3     9       8    0    4    1
 11      1     1       9    0   10    3
         2     3       8    0    8    3
         3     5       0    6    5    2
 12      1     2       5    0    5    3
         2     7       5    0    4    3
         3     9       0    5    1    1
 13      1     2       1    0    9    4
         2     3       0    9    9    3
         3     5       0    6    8    2
 14      1     1       0    4    3    7
         2     2       4    0    3    7
         3     8       0    3    2    6
 15      1     3      10    0   10   10
         2     9       0    5    8    6
         3     9       9    0    8    3
 16      1     6       3    0    8    8
         2     9       0    4    6    7
         3    10       0    3    2    7
 17      1     2       6    0    8   10
         2     6       5    0    7    8
         3     9       4    0    7    8
 18      1     4       0    8    8    3
         2     6       8    0    7    3
         3     7       8    0    6    2
 19      1     1       9    0    8    9
         2     8       0    5    5    9
         3     8       0    6    4    9
 20      1     3       0    8    1    4
         2     4       2    0    1    3
         3     5       0    4    1    1
 21      1     5       4    0    6    9
         2     8       3    0    5    9
         3    10       1    0    5    8
 22      1     0       0    0    0    0
************************************************************************
RESOURCEAVAILABILITIES:
  R 1  R 2  N 1  N 2
   27   22  131  131
************************************************************************
MAXIMAL LAGS:
from  to  type  delay
    1   22   ES      0
    1    2   ES      0
    2   22   ES      0
    1    3   ES      0
    3   22   ES      0
    1    4   ES      0
    4   22   ES      0
    1    5   ES      0
    5   22   ES      0
    1    6   ES      0
    6   22   ES      0
    1    7   ES      0
    7   22   ES      0
    1    8   ES      0
    8   22   ES      0
    1    9   ES      0
    9   22   ES      0
    1   10   ES      0
   10   22   ES      0
    1   11   ES      0
   11   22   ES      0
    1   12   ES      0
   12   22   ES      0
    1   13   ES      0
   13   22   ES      0
    1   14   ES      0
   14   22   ES      0
    1   15   ES      0
   15   22   ES      0
    1   16   ES      0
   16   22   ES      0
    1   17   ES      0
   17   22   ES      0
    1   18   ES      0
   18   22   ES      0
    1   19   ES      0
   19   22   ES      0
    1   20   ES      0
   20   22   ES      0
    1   21   ES      0
   21   22   ES      0
    1   22   ES      0
    2    8   SS    -11
    2    8   SE    -12
    2    8   ES    -12
    2    8   EE     -8
    2   10   SS      0
    2   10   SE     12
    2   10   ES      2
    2   10   EE     -1
    2   17   SS     -2
    2   17   SE     -4
    2   17   ES      2
    2   17   EE     -1
    3    5   SS     -6
    3    5   SE     10
    3    5   ES     12
    3    5   EE      7
    3    6   SS      1
    3    6   SE     -3
    3    6   ES     10
    3    6   EE    -10
    3    7   SS      1
    3    7   SE     -6
    3    7   ES      4
    3    7   EE     -8
    4   10   SS     -2
    4   10   SE    -10
    4   10   ES     -9
    4   10   EE      3
    4   14   SS     -8
    4   14   SE      8
    4   14   ES     -6
    4   14   EE    -11
    4   15   SS     -6
    4   15   SE     -1
    4   15   ES      4
    4   15   EE     -7
    5   10   SS    -10
    5   10   SE      3
    5   10   ES     -7
    5   10   EE      0
    5   16   SS     -5
    5   16   SE      9
    5   16   ES     -5
    5   16   EE    -12
    6   12   SS      5
    6   12   SE     12
    6   12   ES    -11
    6   12   EE     11
    6   19   SS     -4
    6   19   SE      5
    6   19   ES      8
    6   19   EE      8
    6   20   SS    -12
    6   20   SE      5
    6   20   ES     10
    6   20   EE      4
    7    9   SS     10
    7    9   SE      1
    7    9   ES     10
    7    9   EE    -10
    7   13   SS     -9
    7   13   SE     -7
    7   13   ES     12
    7   13   EE     -1
    7   16   SS      4
    7   16   SE    -12
    7   16   ES     -3
    7   16   EE     -3
    8   14   SS     10
    8   14   SE     -5
    8   14   ES    -11
    8   14   EE      0
    8   18   SS     -2
    8   18   SE      9
    8   18   ES     12
    8   18   EE      2
    8   21   SS      3
    8   21   SE     -8
    8   21   ES    -10
    8   21   EE     -9
    9   11   SS     -8
    9   11   SE      2
    9   11   ES     -9
    9   11   EE     10
   10   18   SS      0
   10   18   SE      4
   10   18   ES     -9
   10   18   EE    -12
   11   12   SS      6
   11   12   SE      4
   11   12   ES     -9
   11   12   EE      9
   11   20   SS      2
   11   20   SE      1
   11   20   ES      1
   11   20   EE     -5
   12   21   SS     -1
   12   21   SE     -8
   12   21   ES    -10
   12   21   EE     -2
   13   14   SS     -8
   13   14   SE      1
   13   14   ES      3
   13   14   EE     -6
   13   15   SS      8
   13   15   SE      2
   13   15   ES     -9
   13   15   EE    -10
   14   19   SS    -12
   14   19   SE      2
   14   19   ES     12
   14   19   EE    -12
   15   17   SS      0
   15   17   SE      5
   15   17   ES      1
   15   17   EE      4
   16   17   SS      8
   16   17   SE      1
   16   17   ES     -4
   16   17   EE      1
   16   19   SS     11
   16   19   SE     -3
   16   19   ES     -9
   16   19   EE     -3
   16   21   SS      3
   16   21   SE     -5
   16   21   ES     -1
   16   21   EE      7
   17   18   SS     -3
   17   18   SE      1
   17   18   ES      5
   17   18   EE      6
   18   20   SS     -2
   18   20   SE     -6
   18   20   ES      8
   18   20   EE      2
************************************************************************
